words_hard_train/3879.qaiger
aag 105 16 0 1 89
2
4
8
12
16
20
24
32
34
38
42
46
54
92
106
108
210
6 3 5
10 6 9
14 10 13
18 14 17
22 18 21
26 23 24
28 22 25
30 27 29
36 33 35
40 36 39
44 41 42
48 44 46
50 45 47
52 49 51
56 55 38
58 56 42
60 58 36
62 53 61
64 52 60
66 63 65
68 54 38
70 69 33
72 70 35
74 68 32
76 74 34
78 77 42
80 73 78
82 66 80
84 31 82
86 30 83
88 85 87
90 65 51
94 91 93
96 90 92
98 95 97
100 88 99
102 89 98
104 101 103
110 106 108
112 107 109
114 111 113
116 114 29
118 115 28
120 117 119
122 95 83
124 123 97
126 120 125
128 121 124
130 127 129
132 105 130
134 19 20
136 135 23
138 67 81
140 139 83
142 137 140
144 136 141
146 143 145
148 76 43
150 149 79
152 15 16
154 153 19
156 151 154
158 4 38
160 5 39
162 159 161
164 75 35
166 165 77
168 11 12
170 169 15
172 166 170
174 162 173
176 157 174
178 167 171
180 7 8
182 181 11
184 71 75
186 182 184
188 179 187
190 150 155
192 188 191
194 176 192
196 2 55
198 3 54
200 183 185
202 199 201
204 197 202
206 194 204
208 146 206
210 132 208
i0 2 y1[0]
i1 2 y1[1]
i2 2 y1[2]
i3 2 y1[3]
i4 2 y1[4]
i5 2 y1[5]
i6 2 y1[6]
i7 1 x1[2]
i8 1 x1[3]
i9 1 x1[1]
i10 1 x1[4]
i11 1 x1[5]
i12 1 x1[0]
i13 1 x1[6]
i14 2 y1[7]
i15 1 x1[7]
o0 bool[0]
c
simplified
  ==
    subtract
      -180
      add
        -82
        1 x1
    unary minus
      2 y1
