words_hard_train/3879.qaiger.qdimacs
p cnf 105 268
a 46 16 17 19 21 54 23 27 0
e 1 2 3 4 5 6 7 8 9 10 11 12 13 14 15 18 20 22 24 25 26 28 29 30 31 32 33 34 35 36 37 38 39 40 41 42 43 44 45 47 48 49 50 51 52 53 55 56 57 58 59 60 61 62 63 64 65 66 67 68 69 70 71 72 73 74 75 76 77 78 79 80 81 82 83 84 85 86 87 88 89 90 91 92 93 94 95 96 97 98 99 100 101 102 103 104 105 0
1 2 3 0
-1 -3 0
-2 -3 0
-3 4 5 0
3 -5 0
-4 -5 0
-5 6 7 0
5 -7 0
-6 -7 0
-7 8 9 0
7 -9 0
-8 -9 0
-9 10 11 0
9 -11 0
-10 -11 0
11 -12 13 0
-11 -13 0
12 -13 0
-11 12 14 0
11 -14 0
-12 -14 0
13 14 15 0
-13 -15 0
-14 -15 0
16 17 18 0
-16 -18 0
-17 -18 0
-18 19 20 0
18 -20 0
-19 -20 0
20 -21 22 0
-20 -22 0
21 -22 0
-22 -23 24 0
22 -24 0
23 -24 0
22 23 25 0
-22 -25 0
-23 -25 0
24 25 26 0
-24 -26 0
-25 -26 0
27 -19 28 0
-27 -28 0
19 -28 0
-28 -21 29 0
28 -29 0
21 -29 0
-29 -18 30 0
29 -30 0
18 -30 0
26 30 31 0
-26 -31 0
-30 -31 0
-26 -30 32 0
26 -32 0
30 -32 0
31 32 33 0
-31 -33 0
-32 -33 0
-27 -19 34 0
27 -34 0
19 -34 0
34 16 35 0
-34 -35 0
-16 -35 0
-35 17 36 0
35 -36 0
-17 -36 0
-34 -16 37 0
34 -37 0
16 -37 0
-37 -17 38 0
37 -38 0
17 -38 0
38 -21 39 0
-38 -39 0
21 -39 0
36 -39 40 0
-36 -40 0
39 -40 0
-33 -40 41 0
33 -41 0
40 -41 0
15 -41 42 0
-15 -42 0
41 -42 0
-15 41 43 0
15 -43 0
-41 -43 0
42 43 44 0
-42 -44 0
-43 -44 0
32 25 45 0
-32 -45 0
-25 -45 0
45 46 47 0
-45 -47 0
-46 -47 0
-45 -46 48 0
45 -48 0
46 -48 0
47 48 49 0
-47 -49 0
-48 -49 0
-44 49 50 0
44 -50 0
-49 -50 0
44 -49 51 0
-44 -51 0
49 -51 0
50 51 52 0
-50 -52 0
-51 -52 0
-53 -54 55 0
53 -55 0
54 -55 0
53 54 56 0
-53 -56 0
-54 -56 0
55 56 57 0
-55 -57 0
-56 -57 0
-57 14 58 0
57 -58 0
-14 -58 0
57 -14 59 0
-57 -59 0
14 -59 0
58 59 60 0
-58 -60 0
-59 -60 0
47 41 61 0
-47 -61 0
-41 -61 0
61 48 62 0
-61 -62 0
-48 -62 0
-60 62 63 0
60 -63 0
-62 -63 0
60 -62 64 0
-60 -64 0
62 -64 0
63 64 65 0
-63 -65 0
-64 -65 0
52 -65 66 0
-52 -66 0
65 -66 0
9 -10 67 0
-9 -67 0
10 -67 0
67 11 68 0
-67 -68 0
-11 -68 0
33 40 69 0
-33 -69 0
-40 -69 0
69 41 70 0
-69 -70 0
-41 -70 0
68 -70 71 0
-68 -71 0
70 -71 0
-68 70 72 0
68 -72 0
-70 -72 0
71 72 73 0
-71 -73 0
-72 -73 0
-38 21 74 0
38 -74 0
-21 -74 0
74 39 75 0
-74 -75 0
-39 -75 0
7 -8 76 0
-7 -76 0
8 -76 0
76 9 77 0
-76 -77 0
-9 -77 0
75 -77 78 0
-75 -78 0
77 -78 0
-2 -19 79 0
2 -79 0
19 -79 0
2 19 80 0
-2 -80 0
-19 -80 0
79 80 81 0
-79 -81 0
-80 -81 0
37 17 82 0
-37 -82 0
-17 -82 0
82 38 83 0
-82 -83 0
-38 -83 0
5 -6 84 0
-5 -84 0
6 -84 0
84 7 85 0
-84 -85 0
-7 -85 0
-83 -85 86 0
83 -86 0
85 -86 0
-81 86 87 0
81 -87 0
-86 -87 0
78 -87 88 0
-78 -88 0
87 -88 0
83 85 89 0
-83 -89 0
-85 -89 0
3 -4 90 0
-3 -90 0
4 -90 0
90 5 91 0
-90 -91 0
-5 -91 0
35 37 92 0
-35 -92 0
-37 -92 0
-91 -92 93 0
91 -93 0
92 -93 0
89 93 94 0
-89 -94 0
-93 -94 0
-75 77 95 0
75 -95 0
-77 -95 0
-94 95 96 0
94 -96 0
-95 -96 0
-88 -96 97 0
88 -97 0
96 -97 0
-1 27 98 0
1 -98 0
-27 -98 0
1 -27 99 0
-1 -99 0
27 -99 0
91 92 100 0
-91 -100 0
-92 -100 0
99 100 101 0
-99 -101 0
-100 -101 0
98 -101 102 0
-98 -102 0
101 -102 0
-97 -102 103 0
97 -103 0
102 -103 0
-73 -103 104 0
73 -104 0
103 -104 0
-66 -104 105 0
66 -105 0
104 -105 0
105 0
